(set-info :status unsat)
(set-logic QF_NRA)
(set-info :source | Simple test example.|)
(set-info :smt-lib-version 2.0)
(declare-fun x () Real)
(declare-fun a () Real)
(declare-fun b () Real)
(assert (> (/ (+ a b) 2) (/ (+ 5 x) 7)))
(checksat)
